
c turning on binary mode checking

c parsing input formula with 86 variables and 258 clauses

c finished parsing, read 362 bytes from proof file

c detected empty clause; start verification via backward checking

c 136 of 258 clauses in core                            

c 5 of 48 lemmas in core using 342 resolution steps

c 0 RAT lemmas in core; 1 redundant literals in core lemmas

s VERIFIED

c verification time: 0.130 seconds
